WARNING: for repeatability, setting FPU to use double precision
============================[ Problem Statistics ]=============================
|                                                                             |
|  Number of variables:        249398                                         |
|  Number of clauses:         1484862                                         |
|  Parse time:                   0.42 s                                       |
|                                                                             |
c ============================[ Search Statistics ]==============================
c | Conflicts |          ORIGINAL         |          LEARNT          | Progress |
c |           |    Vars  Clauses Literals |    Limit  Clauses Lit/Cl |          |
c ===============================================================================
c Switched to VSIDS.
c Switched to LRB.
c Switched to VSIDS.
c Switched to LRB.
c Switched to VSIDS.
c Switched to LRB.
c Switched to VSIDS.
c Switched to LRB.
c Switched to VSIDS.
c Switched to LRB.
c Switched to VSIDS.
c Switched to LRB.
c Switched to VSIDS.
c Switched to LRB.
c Switched to VSIDS.
c Switched to LRB.
c Switched to VSIDS.
c Switched to LRB.
c Switched to VSIDS.
c Switched to LRB.
c Switched to VSIDS.
c Switched to LRB.
c Switched to VSIDS.
c Switched to LRB.
c Switched to VSIDS.
c Switched to LRB.
c Switched to VSIDS.
c Switched to LRB.
c Switched to VSIDS.
c ===============================================================================
restarts                  : 23580
conflicts                 : 5748527        (2026 /sec)
decisions                 : 662464431      (0.00 % random) (233427 /sec)
propagations              : 4788474252     (1687273 /sec)
conflict literals         : 116296951      (23.38 % deleted)

conflicts w/ DIP found    : 3429978        (59.67 % of conflicts)
conflicts w/ dangerous DIP: 0              (0.00 % of conflicts)
conflicts w/ DIP-learning : 45             (0.00 % of conflicts)
decisions on ext vars     : 960            (0.00 % of decisions)
total ext vars            : 18          
tried delete ext vars     : 0           
deleted ext vars          : 0           
max ext vars              : 18          

Memory used               : 894.00 MB
CPU time                  : 2838 s
DIP computation time      : 39.8559 s (1.40 % of total time)
ER_sel time               : 5.51827 s
ER_add time               : 0.000882 s
ER_delC time              : 0 s
ER_delV time              : 0 s
ER_sub time               : 8.77142 s
ER_stat time              : 0 s

SATISFIABLE
